(set-info :smt-lib-version 2.7)
(set-logic QF_NIA)
(set-info :source  | 
Generated by: Johannes Bauer
Generated on: 2026-06-18
Generator: mgm A12 Test Data Generator
Application: ELSTER
Target solver: Z3, Yices2, CVC5
Script is based on the ELSTER form: capital gains tax registration (A / KapEStInvStG)
Characteristic of the form: easy.
In this script, all terms of the form (* x1 x2 x3 ...) are in the form (* x1 c2 c3 ...),
all terms of the form (div x y) are in the form (div x c) and the symbol mod is exclusively used in the form (mod x c),
where x, y, and x1, x2, x3 ... are free constants and c, c2, c3 ... are terms in the form n or (-n) for some numeral n.
The script starts with the base constraints, which define a valid data set for the corresponding form. After the first (push 1), control constraints follow.
The goal of the control constraints in this script is to fill up a data set with values, after the characteristics of the high test coverage were placed.
number variables: 18, number constraints: 14
"https://www.elster.de/eportal/start?locale=en_US"
"https://www.mgm-tp.com/q12-tdg.html"
"https://a12.ai/public-sector"
|)
(set-info :license "https://creativecommons.org/licenses/by/4.0/")
(set-info :category "industrial")
(set-info :major-phase |variable declarations|)
(declare-fun I1-s-y () Int)
(declare-fun I1-s-m () Int)
(declare-fun I1-s-d () Int)
(declare-fun I1-e-y () Int)
(declare-fun I1-e-m () Int)
(declare-fun I1-e-d () Int)
(declare-fun I2-s-y () Int)
(declare-fun I2-s-m () Int)
(declare-fun I2-s-d () Int)
(declare-fun I2-e-y () Int)
(declare-fun I2-e-m () Int)
(declare-fun I2-e-d () Int)
(declare-fun I3-y () Int)
(declare-fun I3-m () Int)
(declare-fun I3-d () Int)
(declare-fun B4-F () Bool)
(declare-fun B5-F () Bool)
(declare-fun B6-F () Bool)
(set-info :major-phase |base constraints|)
(set-info :base-constraint-type ||)
(assert (and (>= I3-y 2025) (<= I3-y 2025)))
(set-info :base-constraint-type |constraints defining hierarchy (group is filled, if a child is filled)|)
(assert (= B4-F (or B5-F B6-F)))
(set-info :base-constraint-type |domainconstraints date-fields|)
(assert (and (> I3-y 1900) (< I3-y 2100) (> I3-m 0) (<= I3-m 12) (> I3-d 0) (<= I3-d (ite (or (= I3-m 0) (= I3-m 1) (= I3-m 3) (= I3-m 5) (= I3-m 7) (= I3-m 8) (= I3-m 10) (= I3-m 12)) 31 (ite (or (= I3-m 4) (= I3-m 6) (= I3-m 9) (= I3-m 11)) 30 (ite (= (mod I3-y 4) 0) 29 28))))))
(assert (or (< I1-s-y I1-e-y) (and (= I1-s-y I1-e-y) (< I1-s-m I1-e-m)) (and (= I1-s-y I1-e-y) (= I1-s-m I1-e-m) (<= I1-s-d I1-e-d))))
(assert (or (< I2-s-y I2-e-y) (and (= I2-s-y I2-e-y) (< I2-s-m I2-e-m)) (and (= I2-s-y I2-e-y) (= I2-s-m I2-e-m) (<= I2-s-d I2-e-d))))
(set-info :base-constraint-type |constraints from validation-rules|)
(assert (not (or (< I3-y 2025) (> I3-y 2025))))
(assert (not (and (or B6-F B5-F) (not (and B6-F B5-F)))))
(set-info :major-phase |control constraints|)
(push 1)
(assert B6-F)
(set-info :status sat)
(check-sat)
(push 1)
(assert B5-F)
(set-info :status sat)
(check-sat)
(exit)

